&BANDS
 outdir   = './work/',
 prefix   = 'MoS2soc',
 filband  = 'MoS2soc.bands',
 lsym     = .true.
/
