&CONTROL
    calculation   = 'nscf',
    prefix        = 'gr',
    wf_collect    = .TRUE.,
    etot_conv_thr =  1.0000000000d-05,
    forc_conv_thr =  1.0000000000d-04,
    pseudo_dir    = '../pseudo/',
    outdir        = './work/'
    verbosity     = 'high'    
/

&SYSTEM
    ibrav         = 4,
    a             = 2.463924,
    c             = 15.000000,
    nat           = 2,
    ntyp          = 1,
    ecutwfc       = 60.0,
    ecutrho       = 540.0, 
    occupations   = 'smearing'
    smearing      = 'mv'
    degauss       = 0.02
    nbnd          = 16
/

&ELECTRONS
  diagonalization  = 'david',
  mixing_beta      = 0.15,
  conv_thr         = 1.0000000000d-09
/

ATOMIC_SPECIES
C      12.01070  C.pbe-n-rrkjus_psl.0.1.UPF

ATOMIC_POSITIONS (crystal)
C       0.333333   0.666667   0.500000
C       0.666667   0.333333   0.500000

K_POINTS (crystal)
144
  0.00000000  0.00000000  0.00000000  6.944444e-03
  0.00000000  0.08333333  0.00000000  6.944444e-03
  0.00000000  0.16666667  0.00000000  6.944444e-03
  0.00000000  0.25000000  0.00000000  6.944444e-03
  0.00000000  0.33333333  0.00000000  6.944444e-03
  0.00000000  0.41666667  0.00000000  6.944444e-03
  0.00000000  0.50000000  0.00000000  6.944444e-03
  0.00000000  0.58333333  0.00000000  6.944444e-03
  0.00000000  0.66666667  0.00000000  6.944444e-03
  0.00000000  0.75000000  0.00000000  6.944444e-03
  0.00000000  0.83333333  0.00000000  6.944444e-03
  0.00000000  0.91666667  0.00000000  6.944444e-03
  0.08333333  0.00000000  0.00000000  6.944444e-03
  0.08333333  0.08333333  0.00000000  6.944444e-03
  0.08333333  0.16666667  0.00000000  6.944444e-03
  0.08333333  0.25000000  0.00000000  6.944444e-03
  0.08333333  0.33333333  0.00000000  6.944444e-03
  0.08333333  0.41666667  0.00000000  6.944444e-03
  0.08333333  0.50000000  0.00000000  6.944444e-03
  0.08333333  0.58333333  0.00000000  6.944444e-03
  0.08333333  0.66666667  0.00000000  6.944444e-03
  0.08333333  0.75000000  0.00000000  6.944444e-03
  0.08333333  0.83333333  0.00000000  6.944444e-03
  0.08333333  0.91666667  0.00000000  6.944444e-03
  0.16666667  0.00000000  0.00000000  6.944444e-03
  0.16666667  0.08333333  0.00000000  6.944444e-03
  0.16666667  0.16666667  0.00000000  6.944444e-03
  0.16666667  0.25000000  0.00000000  6.944444e-03
  0.16666667  0.33333333  0.00000000  6.944444e-03
  0.16666667  0.41666667  0.00000000  6.944444e-03
  0.16666667  0.50000000  0.00000000  6.944444e-03
  0.16666667  0.58333333  0.00000000  6.944444e-03
  0.16666667  0.66666667  0.00000000  6.944444e-03
  0.16666667  0.75000000  0.00000000  6.944444e-03
  0.16666667  0.83333333  0.00000000  6.944444e-03
  0.16666667  0.91666667  0.00000000  6.944444e-03
  0.25000000  0.00000000  0.00000000  6.944444e-03
  0.25000000  0.08333333  0.00000000  6.944444e-03
  0.25000000  0.16666667  0.00000000  6.944444e-03
  0.25000000  0.25000000  0.00000000  6.944444e-03
  0.25000000  0.33333333  0.00000000  6.944444e-03
  0.25000000  0.41666667  0.00000000  6.944444e-03
  0.25000000  0.50000000  0.00000000  6.944444e-03
  0.25000000  0.58333333  0.00000000  6.944444e-03
  0.25000000  0.66666667  0.00000000  6.944444e-03
  0.25000000  0.75000000  0.00000000  6.944444e-03
  0.25000000  0.83333333  0.00000000  6.944444e-03
  0.25000000  0.91666667  0.00000000  6.944444e-03
  0.33333333  0.00000000  0.00000000  6.944444e-03
  0.33333333  0.08333333  0.00000000  6.944444e-03
  0.33333333  0.16666667  0.00000000  6.944444e-03
  0.33333333  0.25000000  0.00000000  6.944444e-03
  0.33333333  0.33333333  0.00000000  6.944444e-03
  0.33333333  0.41666667  0.00000000  6.944444e-03
  0.33333333  0.50000000  0.00000000  6.944444e-03
  0.33333333  0.58333333  0.00000000  6.944444e-03
  0.33333333  0.66666667  0.00000000  6.944444e-03
  0.33333333  0.75000000  0.00000000  6.944444e-03
  0.33333333  0.83333333  0.00000000  6.944444e-03
  0.33333333  0.91666667  0.00000000  6.944444e-03
  0.41666667  0.00000000  0.00000000  6.944444e-03
  0.41666667  0.08333333  0.00000000  6.944444e-03
  0.41666667  0.16666667  0.00000000  6.944444e-03
  0.41666667  0.25000000  0.00000000  6.944444e-03
  0.41666667  0.33333333  0.00000000  6.944444e-03
  0.41666667  0.41666667  0.00000000  6.944444e-03
  0.41666667  0.50000000  0.00000000  6.944444e-03
  0.41666667  0.58333333  0.00000000  6.944444e-03
  0.41666667  0.66666667  0.00000000  6.944444e-03
  0.41666667  0.75000000  0.00000000  6.944444e-03
  0.41666667  0.83333333  0.00000000  6.944444e-03
  0.41666667  0.91666667  0.00000000  6.944444e-03
  0.50000000  0.00000000  0.00000000  6.944444e-03
  0.50000000  0.08333333  0.00000000  6.944444e-03
  0.50000000  0.16666667  0.00000000  6.944444e-03
  0.50000000  0.25000000  0.00000000  6.944444e-03
  0.50000000  0.33333333  0.00000000  6.944444e-03
  0.50000000  0.41666667  0.00000000  6.944444e-03
  0.50000000  0.50000000  0.00000000  6.944444e-03
  0.50000000  0.58333333  0.00000000  6.944444e-03
  0.50000000  0.66666667  0.00000000  6.944444e-03
  0.50000000  0.75000000  0.00000000  6.944444e-03
  0.50000000  0.83333333  0.00000000  6.944444e-03
  0.50000000  0.91666667  0.00000000  6.944444e-03
  0.58333333  0.00000000  0.00000000  6.944444e-03
  0.58333333  0.08333333  0.00000000  6.944444e-03
  0.58333333  0.16666667  0.00000000  6.944444e-03
  0.58333333  0.25000000  0.00000000  6.944444e-03
  0.58333333  0.33333333  0.00000000  6.944444e-03
  0.58333333  0.41666667  0.00000000  6.944444e-03
  0.58333333  0.50000000  0.00000000  6.944444e-03
  0.58333333  0.58333333  0.00000000  6.944444e-03
  0.58333333  0.66666667  0.00000000  6.944444e-03
  0.58333333  0.75000000  0.00000000  6.944444e-03
  0.58333333  0.83333333  0.00000000  6.944444e-03
  0.58333333  0.91666667  0.00000000  6.944444e-03
  0.66666667  0.00000000  0.00000000  6.944444e-03
  0.66666667  0.08333333  0.00000000  6.944444e-03
  0.66666667  0.16666667  0.00000000  6.944444e-03
  0.66666667  0.25000000  0.00000000  6.944444e-03
  0.66666667  0.33333333  0.00000000  6.944444e-03
  0.66666667  0.41666667  0.00000000  6.944444e-03
  0.66666667  0.50000000  0.00000000  6.944444e-03
  0.66666667  0.58333333  0.00000000  6.944444e-03
  0.66666667  0.66666667  0.00000000  6.944444e-03
  0.66666667  0.75000000  0.00000000  6.944444e-03
  0.66666667  0.83333333  0.00000000  6.944444e-03
  0.66666667  0.91666667  0.00000000  6.944444e-03
  0.75000000  0.00000000  0.00000000  6.944444e-03
  0.75000000  0.08333333  0.00000000  6.944444e-03
  0.75000000  0.16666667  0.00000000  6.944444e-03
  0.75000000  0.25000000  0.00000000  6.944444e-03
  0.75000000  0.33333333  0.00000000  6.944444e-03
  0.75000000  0.41666667  0.00000000  6.944444e-03
  0.75000000  0.50000000  0.00000000  6.944444e-03
  0.75000000  0.58333333  0.00000000  6.944444e-03
  0.75000000  0.66666667  0.00000000  6.944444e-03
  0.75000000  0.75000000  0.00000000  6.944444e-03
  0.75000000  0.83333333  0.00000000  6.944444e-03
  0.75000000  0.91666667  0.00000000  6.944444e-03
  0.83333333  0.00000000  0.00000000  6.944444e-03
  0.83333333  0.08333333  0.00000000  6.944444e-03
  0.83333333  0.16666667  0.00000000  6.944444e-03
  0.83333333  0.25000000  0.00000000  6.944444e-03
  0.83333333  0.33333333  0.00000000  6.944444e-03
  0.83333333  0.41666667  0.00000000  6.944444e-03
  0.83333333  0.50000000  0.00000000  6.944444e-03
  0.83333333  0.58333333  0.00000000  6.944444e-03
  0.83333333  0.66666667  0.00000000  6.944444e-03
  0.83333333  0.75000000  0.00000000  6.944444e-03
  0.83333333  0.83333333  0.00000000  6.944444e-03
  0.83333333  0.91666667  0.00000000  6.944444e-03
  0.91666667  0.00000000  0.00000000  6.944444e-03
  0.91666667  0.08333333  0.00000000  6.944444e-03
  0.91666667  0.16666667  0.00000000  6.944444e-03
  0.91666667  0.25000000  0.00000000  6.944444e-03
  0.91666667  0.33333333  0.00000000  6.944444e-03
  0.91666667  0.41666667  0.00000000  6.944444e-03
  0.91666667  0.50000000  0.00000000  6.944444e-03
  0.91666667  0.58333333  0.00000000  6.944444e-03
  0.91666667  0.66666667  0.00000000  6.944444e-03
  0.91666667  0.75000000  0.00000000  6.944444e-03
  0.91666667  0.83333333  0.00000000  6.944444e-03
  0.91666667  0.91666667  0.00000000  6.944444e-03

