
###########################################
# CALCULATE BANDSTRUCTURE 
# AND EXTRACT TIGHT-BINDING PARAMETER
# created by M.Y. Hanna
###########################################

#########################################
# W90 MODULES
#########################################
num_bands         = 16          ! number of DFT bands
num_wann          = 5           ! number of Wannier bands

! ------------------------- !
! dis_froz is set to [-3 eV:+3 eV] 
! with respect to Fermi level
! EF = -1.6773  eV
! ------------------------- !
dis_froz_max      = 1.3227
dis_froz_min      = -4.6773

! ------------------------- !
! dis_window is set to [-20 eV:+20 eV] 
! with respect to Fermi level
! EF = -1.6773 eV
! ------------------------- !
#dis_win_min       = -23.9808
#dis_win_max       = 16.3192

dis_num_iter      = 5000
num_iter          = 000
num_print_cycles  = 100
dis_mix_ratio     = 1.0
iprint            = 2
#########################################


#########################################
# EXTRACT TIGHT-BINDING PARAMETER
#########################################
write_hr = .true.
write_xyz = .true.
use_ws_distance  = .true.

#########################################
# SYSTEM
#########################################
begin unit_cell_cart
Ang
    2.463924   0.000000   0.000000
   -1.231962   2.133821   0.000000
    0.000000   0.000000  15.000000
end unit_cell_cart

begin atoms_frac
C       0.333333   0.666667   0.500000
C       0.666667   0.333333   0.500000
end atoms_frac

#########################################
# PROJECTION
#########################################
begin projections
C: pz
f= 0.5, 0.5, 0.5: s
f= 0.5, 0.0, 0.5: s
f= 0.0, 0.5, 0.5: s
end projections

#########################################
# PLOT BANDSTRUCTURE
#########################################
bands_plot = .true.
bands_num_points = 200

begin kpoint_path
G   0.00000   0.00000   0.00000       K   0.33333   0.33333   0.00000
K   0.33333   0.33333   0.00000       M   0.50000   0.00000   0.00000
M   0.50000   0.00000   0.00000       G   0.00000   0.00000   0.00000
end kpoint_path

#########################################
# K-POINTS
#########################################
mp_grid =  12   12   1

begin kpoints
  0.00000000  0.00000000  0.00000000
  0.00000000  0.08333333  0.00000000
  0.00000000  0.16666667  0.00000000
  0.00000000  0.25000000  0.00000000
  0.00000000  0.33333333  0.00000000
  0.00000000  0.41666667  0.00000000
  0.00000000  0.50000000  0.00000000
  0.00000000  0.58333333  0.00000000
  0.00000000  0.66666667  0.00000000
  0.00000000  0.75000000  0.00000000
  0.00000000  0.83333333  0.00000000
  0.00000000  0.91666667  0.00000000
  0.08333333  0.00000000  0.00000000
  0.08333333  0.08333333  0.00000000
  0.08333333  0.16666667  0.00000000
  0.08333333  0.25000000  0.00000000
  0.08333333  0.33333333  0.00000000
  0.08333333  0.41666667  0.00000000
  0.08333333  0.50000000  0.00000000
  0.08333333  0.58333333  0.00000000
  0.08333333  0.66666667  0.00000000
  0.08333333  0.75000000  0.00000000
  0.08333333  0.83333333  0.00000000
  0.08333333  0.91666667  0.00000000
  0.16666667  0.00000000  0.00000000
  0.16666667  0.08333333  0.00000000
  0.16666667  0.16666667  0.00000000
  0.16666667  0.25000000  0.00000000
  0.16666667  0.33333333  0.00000000
  0.16666667  0.41666667  0.00000000
  0.16666667  0.50000000  0.00000000
  0.16666667  0.58333333  0.00000000
  0.16666667  0.66666667  0.00000000
  0.16666667  0.75000000  0.00000000
  0.16666667  0.83333333  0.00000000
  0.16666667  0.91666667  0.00000000
  0.25000000  0.00000000  0.00000000
  0.25000000  0.08333333  0.00000000
  0.25000000  0.16666667  0.00000000
  0.25000000  0.25000000  0.00000000
  0.25000000  0.33333333  0.00000000
  0.25000000  0.41666667  0.00000000
  0.25000000  0.50000000  0.00000000
  0.25000000  0.58333333  0.00000000
  0.25000000  0.66666667  0.00000000
  0.25000000  0.75000000  0.00000000
  0.25000000  0.83333333  0.00000000
  0.25000000  0.91666667  0.00000000
  0.33333333  0.00000000  0.00000000
  0.33333333  0.08333333  0.00000000
  0.33333333  0.16666667  0.00000000
  0.33333333  0.25000000  0.00000000
  0.33333333  0.33333333  0.00000000
  0.33333333  0.41666667  0.00000000
  0.33333333  0.50000000  0.00000000
  0.33333333  0.58333333  0.00000000
  0.33333333  0.66666667  0.00000000
  0.33333333  0.75000000  0.00000000
  0.33333333  0.83333333  0.00000000
  0.33333333  0.91666667  0.00000000
  0.41666667  0.00000000  0.00000000
  0.41666667  0.08333333  0.00000000
  0.41666667  0.16666667  0.00000000
  0.41666667  0.25000000  0.00000000
  0.41666667  0.33333333  0.00000000
  0.41666667  0.41666667  0.00000000
  0.41666667  0.50000000  0.00000000
  0.41666667  0.58333333  0.00000000
  0.41666667  0.66666667  0.00000000
  0.41666667  0.75000000  0.00000000
  0.41666667  0.83333333  0.00000000
  0.41666667  0.91666667  0.00000000
  0.50000000  0.00000000  0.00000000
  0.50000000  0.08333333  0.00000000
  0.50000000  0.16666667  0.00000000
  0.50000000  0.25000000  0.00000000
  0.50000000  0.33333333  0.00000000
  0.50000000  0.41666667  0.00000000
  0.50000000  0.50000000  0.00000000
  0.50000000  0.58333333  0.00000000
  0.50000000  0.66666667  0.00000000
  0.50000000  0.75000000  0.00000000
  0.50000000  0.83333333  0.00000000
  0.50000000  0.91666667  0.00000000
  0.58333333  0.00000000  0.00000000
  0.58333333  0.08333333  0.00000000
  0.58333333  0.16666667  0.00000000
  0.58333333  0.25000000  0.00000000
  0.58333333  0.33333333  0.00000000
  0.58333333  0.41666667  0.00000000
  0.58333333  0.50000000  0.00000000
  0.58333333  0.58333333  0.00000000
  0.58333333  0.66666667  0.00000000
  0.58333333  0.75000000  0.00000000
  0.58333333  0.83333333  0.00000000
  0.58333333  0.91666667  0.00000000
  0.66666667  0.00000000  0.00000000
  0.66666667  0.08333333  0.00000000
  0.66666667  0.16666667  0.00000000
  0.66666667  0.25000000  0.00000000
  0.66666667  0.33333333  0.00000000
  0.66666667  0.41666667  0.00000000
  0.66666667  0.50000000  0.00000000
  0.66666667  0.58333333  0.00000000
  0.66666667  0.66666667  0.00000000
  0.66666667  0.75000000  0.00000000
  0.66666667  0.83333333  0.00000000
  0.66666667  0.91666667  0.00000000
  0.75000000  0.00000000  0.00000000
  0.75000000  0.08333333  0.00000000
  0.75000000  0.16666667  0.00000000
  0.75000000  0.25000000  0.00000000
  0.75000000  0.33333333  0.00000000
  0.75000000  0.41666667  0.00000000
  0.75000000  0.50000000  0.00000000
  0.75000000  0.58333333  0.00000000
  0.75000000  0.66666667  0.00000000
  0.75000000  0.75000000  0.00000000
  0.75000000  0.83333333  0.00000000
  0.75000000  0.91666667  0.00000000
  0.83333333  0.00000000  0.00000000
  0.83333333  0.08333333  0.00000000
  0.83333333  0.16666667  0.00000000
  0.83333333  0.25000000  0.00000000
  0.83333333  0.33333333  0.00000000
  0.83333333  0.41666667  0.00000000
  0.83333333  0.50000000  0.00000000
  0.83333333  0.58333333  0.00000000
  0.83333333  0.66666667  0.00000000
  0.83333333  0.75000000  0.00000000
  0.83333333  0.83333333  0.00000000
  0.83333333  0.91666667  0.00000000
  0.91666667  0.00000000  0.00000000
  0.91666667  0.08333333  0.00000000
  0.91666667  0.16666667  0.00000000
  0.91666667  0.25000000  0.00000000
  0.91666667  0.33333333  0.00000000
  0.91666667  0.41666667  0.00000000
  0.91666667  0.50000000  0.00000000
  0.91666667  0.58333333  0.00000000
  0.91666667  0.66666667  0.00000000
  0.91666667  0.75000000  0.00000000
  0.91666667  0.83333333  0.00000000
  0.91666667  0.91666667  0.00000000
end kpoints
