&CONTROL
    calculation   = 'vc-relax',
    prefix        = 'MoS2soc',
    tprnfor       = .TRUE.,
    tstress       = .TRUE.,
    wf_collect    = .TRUE.,
    etot_conv_thr =  1.0000000000d-05,
    forc_conv_thr =  1.0000000000d-04,
    nstep         = 100,
    pseudo_dir    = '../pseudo/',
    outdir        = './work/'    
/

&SYSTEM
    ibrav       = 0,
    nat         = 6,
    ntyp        = 2,
    ecutwfc     = 60.0,  
    ecutrho     = 540.0,      
    occupations = 'smearing',
    smearing    = 'cold',
    noncolin    = .true.,
    lspinorb    = .true.,
    degauss     =  0.02
/

&ELECTRONS
    diagonalization  = 'david',
    conv_thr         = 1.0000000000d-09,
    mixing_beta      = 0.15
/

&IONS
    ion_dynamics     = 'bfgs'
/

&CELL
    cell_dynamics    = 'bfgs',
    press_conv_thr   = 0.05,
    cell_dofree      = '2Dxy',
    cell_factor      = 4
/

CELL_PARAMETERS (angstrom)
  3.177028   0.000000   0.000000
  0.000000   5.728169  -0.015712
  0.000000   0.375691  30.215182

ATOMIC_SPECIES
Mo     95.95000  Mo.rel-pbesol-spn-rrkjus_psl.1.0.0.UPF
S      32.07000  S.rel-pbesol-n-rrkjus_psl.1.0.0.UPF

ATOMIC_POSITIONS (crystal)
Mo      0.500000   0.418854   0.587302
Mo     -0.000000   0.023309   0.592536
S       0.500000   0.135879   0.647386
S       0.000000   0.640516   0.633773
S      -0.000000   0.306286   0.532452
S       0.500000   0.801645   0.546065

K_POINTS (automatic)
12  12  1   0  0  0
