&BANDS
 outdir   = './work/',
 prefix   = 'gr',
 filband  = 'gr.bands',
 lsym     = .true.
/
